(set-info :smt-lib-version 2.6)
(set-logic QF_AX)
(set-info :source |
Benchmarks used in the followin paper:
Big proof engines as little proof engines: new results on rewrite-based satisfiability procedure
Alessandro Armando, Maria Paola Bonacina, Silvio Ranise, Stephan Schulz. 
PDPAR'05
http://www.ai.dist.unige.it/pdpar05/


|)
(set-info :category "crafted")
(set-info :status sat)
(declare-sort Index 0)
(declare-sort Element 0)
(declare-fun a_1066 () (Array Index Element))
(declare-fun a_1068 () (Array Index Element))
(declare-fun a_1070 () (Array Index Element))
(declare-fun a_1071 () (Array Index Element))
(declare-fun a_1073 () (Array Index Element))
(declare-fun a_1075 () (Array Index Element))
(declare-fun a_1077 () (Array Index Element))
(declare-fun a_1079 () (Array Index Element))
(declare-fun a_1081 () (Array Index Element))
(declare-fun a_1083 () (Array Index Element))
(declare-fun a_1085 () (Array Index Element))
(declare-fun a_1087 () (Array Index Element))
(declare-fun a_1089 () (Array Index Element))
(declare-fun a_1091 () (Array Index Element))
(declare-fun a_1093 () (Array Index Element))
(declare-fun a_1095 () (Array Index Element))
(declare-fun a_1097 () (Array Index Element))
(declare-fun a_1099 () (Array Index Element))
(declare-fun a_1100 () (Array Index Element))
(declare-fun a_1101 () (Array Index Element))
(declare-fun a_1103 () (Array Index Element))
(declare-fun a_1104 () (Array Index Element))
(declare-fun a_1106 () (Array Index Element))
(declare-fun a_1108 () (Array Index Element))
(declare-fun a_1110 () (Array Index Element))
(declare-fun a_1112 () (Array Index Element))
(declare-fun a_1114 () (Array Index Element))
(declare-fun a_1116 () (Array Index Element))
(declare-fun a_1118 () (Array Index Element))
(declare-fun a_1120 () (Array Index Element))
(declare-fun a_1122 () (Array Index Element))
(declare-fun a_1124 () (Array Index Element))
(declare-fun a_1126 () (Array Index Element))
(declare-fun a_1128 () (Array Index Element))
(declare-fun a_1130 () (Array Index Element))
(declare-fun a_1132 () (Array Index Element))
(declare-fun e_1065 () Element)
(declare-fun e_1067 () Element)
(declare-fun e_1069 () Element)
(declare-fun e_1072 () Element)
(declare-fun e_1074 () Element)
(declare-fun e_1076 () Element)
(declare-fun e_1078 () Element)
(declare-fun e_1080 () Element)
(declare-fun e_1082 () Element)
(declare-fun e_1084 () Element)
(declare-fun e_1086 () Element)
(declare-fun e_1088 () Element)
(declare-fun e_1090 () Element)
(declare-fun e_1092 () Element)
(declare-fun e_1094 () Element)
(declare-fun e_1096 () Element)
(declare-fun e_1098 () Element)
(declare-fun e_1102 () Element)
(declare-fun e_1105 () Element)
(declare-fun e_1107 () Element)
(declare-fun e_1109 () Element)
(declare-fun e_1111 () Element)
(declare-fun e_1113 () Element)
(declare-fun e_1115 () Element)
(declare-fun e_1117 () Element)
(declare-fun e_1119 () Element)
(declare-fun e_1121 () Element)
(declare-fun e_1123 () Element)
(declare-fun e_1125 () Element)
(declare-fun e_1127 () Element)
(declare-fun e_1129 () Element)
(declare-fun e_1131 () Element)
(declare-fun a1 () (Array Index Element))
(declare-fun i0 () Index)
(declare-fun i1 () Index)
(declare-fun i2 () Index)
(declare-fun i3 () Index)
(declare-fun i5 () Index)
(declare-fun i6 () Index)
(declare-fun i7 () Index)
(declare-fun i8 () Index)
(assert (= a_1066 (store a1 i6 e_1065)))
(assert (= a_1068 (store a_1066 i8 e_1067)))
(assert (= a_1070 (store a_1068 i2 e_1069)))
(assert (= a_1071 (store a_1070 i2 e_1069)))
(assert (= a_1073 (store a_1071 i8 e_1072)))
(assert (= a_1075 (store a_1073 i0 e_1074)))
(assert (= a_1077 (store a_1075 i3 e_1076)))
(assert (= a_1079 (store a_1077 i1 e_1078)))
(assert (= a_1081 (store a_1079 i3 e_1080)))
(assert (= a_1083 (store a_1081 i8 e_1082)))
(assert (= a_1085 (store a_1083 i7 e_1084)))
(assert (= a_1087 (store a_1085 i8 e_1086)))
(assert (= a_1089 (store a_1087 i5 e_1088)))
(assert (= a_1091 (store a_1089 i6 e_1090)))
(assert (= a_1093 (store a_1091 i1 e_1092)))
(assert (= a_1095 (store a_1093 i7 e_1094)))
(assert (= a_1097 (store a_1095 i5 e_1096)))
(assert (= a_1099 (store a_1097 i8 e_1098)))
(assert (= a_1100 (store a1 i8 e_1067)))
(assert (= a_1101 (store a_1100 i6 e_1065)))
(assert (= a_1103 (store a_1101 i2 e_1102)))
(assert (= a_1104 (store a_1103 i2 e_1102)))
(assert (= a_1106 (store a_1104 i0 e_1105)))
(assert (= a_1108 (store a_1106 i8 e_1107)))
(assert (= a_1110 (store a_1108 i1 e_1109)))
(assert (= a_1112 (store a_1110 i3 e_1111)))
(assert (= a_1114 (store a_1112 i8 e_1113)))
(assert (= a_1116 (store a_1114 i3 e_1115)))
(assert (= a_1118 (store a_1116 i8 e_1117)))
(assert (= a_1120 (store a_1118 i7 e_1119)))
(assert (= a_1122 (store a_1120 i6 e_1121)))
(assert (= a_1124 (store a_1122 i5 e_1123)))
(assert (= a_1126 (store a_1124 i7 e_1125)))
(assert (= a_1128 (store a_1126 i1 e_1127)))
(assert (= a_1130 (store a_1128 i8 e_1129)))
(assert (= a_1132 (store a_1130 i6 e_1131)))
(assert (= e_1065 (select a1 i8)))
(assert (= e_1067 (select a1 i6)))
(assert (= e_1069 (select a_1068 i2)))
(assert (= e_1072 (select a_1071 i0)))
(assert (= e_1074 (select a_1071 i8)))
(assert (= e_1076 (select a_1075 i1)))
(assert (= e_1078 (select a_1075 i3)))
(assert (= e_1080 (select a_1079 i8)))
(assert (= e_1082 (select a_1079 i3)))
(assert (= e_1084 (select a_1083 i8)))
(assert (= e_1086 (select a_1083 i7)))
(assert (= e_1088 (select a_1087 i6)))
(assert (= e_1090 (select a_1087 i5)))
(assert (= e_1092 (select a_1091 i7)))
(assert (= e_1094 (select a_1091 i1)))
(assert (= e_1096 (select a_1095 i8)))
(assert (= e_1098 (select a_1095 i5)))
(assert (= e_1102 (select a_1101 i2)))
(assert (= e_1105 (select a_1104 i8)))
(assert (= e_1107 (select a_1104 i0)))
(assert (= e_1109 (select a_1108 i3)))
(assert (= e_1111 (select a_1108 i1)))
(assert (= e_1113 (select a_1112 i3)))
(assert (= e_1115 (select a_1112 i8)))
(assert (= e_1117 (select a_1116 i7)))
(assert (= e_1119 (select a_1116 i8)))
(assert (= e_1121 (select a_1120 i5)))
(assert (= e_1123 (select a_1120 i6)))
(assert (= e_1125 (select a_1124 i1)))
(assert (= e_1127 (select a_1124 i7)))
(assert (= e_1129 (select a_1128 i6)))
(assert (= e_1131 (select a_1128 i8)))
(assert (not (= a_1099 a_1132)))
(check-sat)
(exit)
